# Solution for model r5_t27_m4_4
# Finished Task: 26 / 27
# Makespan: 825.0, Total Distance: 1344.0, Total Time: 0.9606
# R O S F
0 0 5 0.0 0.0
1 1 13 0.0 0.0
2 2 17 0.0 0.0
3 3 9 0.0 0.0
4 4 21 0.0 0.0
5 0 27 297.0 324.0
6 4 22 480.0 519.0
7 2 28 385.0 414.0
8 1 -1 720.0 745.0
9 3 10 83.0 107.0
10 3 16 420.0 455.0
11 0 -1 793.0 825.0
12 0 11 682.0 718.0
13 1 24 309.0 345.0
14 2 29 578.0 611.0
15 -1 -1 -1.0 -1.0
16 3 25 470.0 499.0
17 2 7 337.0 375.0
18 3 -1 708.0 743.0
19 1 26 599.0 624.0
20 4 -1 714.0 746.0
21 4 6 246.0 269.0
22 4 20 578.0 609.0
23 2 -1 704.0 731.0
24 1 31 448.0 480.0
25 3 30 536.0 556.0
26 1 8 665.0 696.0
27 0 12 598.0 637.0
28 2 14 431.0 457.0
29 2 23 648.0 671.0
30 3 18 635.0 670.0
31 1 19 577.0 599.0
